Minimize
  42 x(1) + 44 x(2) + 45 x(3) + 47 x(4) + 47.5 x(5) + [ - 100 x(1)^2
   - 100 x(2)^2 - 100 x(3)^2 - 100 x(4)^2 - 100 x(5)^2 ] / 2
Subject To
 con1: 20 x(1) + 12 x(2) + 11 x(3) + 7 x(4) + 4 x(5) <= 40
Bounds
 x(1) <= 1
 x(2) <= 1
 x(3) <= 1
 x(4) <= 1
 x(5) <= 1
End
